c NeuroCodeBench 2.0 CNF formula with verdict Sat
p cnf 8 16
5 -3 -8 0
3 2 6 -7 -5 0
-2 -4 -1 0
-8 -1 -4 -7 -3 0
1 5 4 2 -6 -8 0
2 -3 -4 0
2 7 8 -1 -5 -3 0
-3 -6 0
-1 0
6 4 -8 0
6 -8 -4 -2 -5 -7 0
4 8 -1 -5 0
2 -8 -6 0
6 -7 -5 0
1 -8 -3 -4 0
7 -8 -1 -3 -2 0
